p cnf 113 383
4 2 0
4 3 0
-2 -3 -4 0
6 -3 0
6 -5 0
3 5 -6 0
-7 4 0
-7 -6 0
-4 6 7 0
7 8 -9 0
-7 -8 -9 0
7 -8 9 0
-7 8 9 0
10 -9 0
10 6 0
9 -6 -10 0
11 -10 0
11 6 0
10 -6 -11 0
-12 1 0
-12 11 0
-1 -11 12 0
3 7 -13 0
-3 -7 -13 0
3 -7 13 0
-3 7 13 0
-12 -13 -14 0
12 13 -14 0
-12 13 14 0
12 -13 14 0
-15 -8 -16 0
15 8 -16 0
-15 8 16 0
15 -8 16 0
18 16 0
18 17 0
-16 -17 -18 0
-13 18 -19 0
13 -18 -19 0
-13 -18 19 0
13 18 19 0
17 20 -21 0
-17 -20 -21 0
17 -20 21 0
-17 20 21 0
22 21 0
22 15 0
-21 -15 -22 0
23 16 0
23 22 0
-16 -22 -23 0
-22 -3 -24 0
22 3 -24 0
-22 3 24 0
22 -3 24 0
-25 23 0
-25 -24 0
-23 24 25 0
19 25 -26 0
-19 -25 -26 0
19 -25 26 0
-19 25 26 0
27 14 0
27 26 0
-14 -26 -27 0
29 -28 0
29 22 0
28 -22 -29 0
-1 28 -30 0
1 -28 -30 0
-1 -28 30 0
1 28 30 0
-31 -30 0
-31 -28 0
30 28 31 0
32 5 0
32 31 0
-5 -31 -32 0
33 -7 0
33 7 0
-2 -33 -34 0
2 33 -34 0
-2 33 34 0
2 -33 34 0
8 34 -35 0
-8 -34 -35 0
8 -34 35 0
-8 34 35 0
32 -35 -36 0
-32 35 -36 0
32 35 36 0
-32 -35 36 0
37 29 0
37 -36 0
-29 36 -37 0
-27 37 -38 0
27 -37 -38 0
-27 -37 38 0
27 37 38 0
-39 9 0
-39 -8 0
-9 8 39 0
41 40 0
41 1 0
-40 -1 -41 0
-39 41 -42 0
39 -41 -42 0
-39 -41 42 0
39 41 42 0
43 9 0
43 20 0
-9 -20 -43 0
-44 -20 0
-44 -41 0
20 41 44 0
45 -43 0
45 -44 0
43 44 -45 0
-46 -42 0
-46 -45 0
42 45 46 0
-28 30 -47 0
28 -30 -47 0
-28 -30 47 0
28 30 47 0
15 -17 -48 0
-15 17 -48 0
15 17 48 0
-15 -17 48 0
49 28 0
49 48 0
-28 -48 -49 0
-50 -49 0
-50 22 0
49 -22 50 0
-47 -50 -51 0
47 50 -51 0
-47 50 51 0
47 -50 51 0
-52 -46 0
-52 -51 0
46 51 52 0
-54 53 0
-54 40 0
-53 -40 54 0
54 -41 -55 0
-54 41 -55 0
54 41 55 0
-54 -41 55 0
-56 -52 0
-56 55 0
52 -55 56 0
57 38 0
57 -56 0
-38 56 -57 0
-58 10 0
-58 53 0
-10 -53 58 0
8 -20 -59 0
-8 20 -59 0
8 20 59 0
-8 -20 59 0
-58 -59 -60 0
58 59 -60 0
-58 59 60 0
58 -59 60 0
-61 9 0
-61 58 0
-9 -58 61 0
62 11 0
62 -6 0
-11 6 -62 0
-21 -62 -63 0
21 62 -63 0
-21 62 63 0
21 -62 63 0
64 61 0
64 -63 0
-61 63 -64 0
60 64 -65 0
-60 -64 -65 0
60 -64 65 0
-60 64 65 0
66 57 0
66 -65 0
-57 65 -66 0
-67 -3 0
-67 -3 0
3 67 0
68 -67 0
68 49 0
67 -49 -68 0
-69 -66 0
-69 68 0
66 -68 69 0
-70 -58 -71 0
70 58 -71 0
-70 58 71 0
70 -58 71 0
-71 72 -73 0
71 -72 -73 0
-71 -72 73 0
71 72 73 0
8 -41 -74 0
-8 41 -74 0
8 41 74 0
-8 -41 74 0
-2 -74 -75 0
2 74 -75 0
-2 74 75 0
2 -74 75 0
-76 -73 0
-76 75 0
73 -75 76 0
39 10 -77 0
-39 -10 -77 0
39 -10 77 0
-39 10 77 0
-78 -77 0
-78 77 0
-78 -33 -79 0
78 33 -79 0
-78 33 79 0
78 -33 79 0
80 79 0
80 -12 0
-79 12 -80 0
-81 -20 0
-81 -7 0
20 7 81 0
-82 -80 0
-82 -81 0
80 81 82 0
-76 -82 -83 0
76 82 -83 0
-76 82 83 0
76 -82 83 0
69 83 -84 0
-69 -83 -84 0
69 -83 84 0
-69 83 84 0
-85 -79 0
-85 78 0
79 -78 85 0
86 6 0
86 -85 0
-6 85 -86 0
88 86 0
88 87 0
-86 -87 -88 0
-89 -41 -90 0
89 41 -90 0
-89 41 90 0
89 -41 90 0
91 -90 0
91 -72 0
90 72 -91 0
-92 -7 0
-92 -34 0
7 34 92 0
-93 91 0
-93 92 0
-91 -92 93 0
88 93 -94 0
-88 -93 -94 0
88 -93 94 0
-88 93 94 0
20 67 -95 0
-20 -67 -95 0
20 -67 95 0
-20 67 95 0
96 4 0
96 7 0
-4 -7 -96 0
95 -96 -97 0
-95 96 -97 0
95 96 97 0
-95 -96 97 0
50 -98 -99 0
-50 98 -99 0
50 98 99 0
-50 -98 99 0
-97 99 -100 0
97 -99 -100 0
-97 -99 100 0
97 99 100 0
49 -89 -101 0
-49 89 -101 0
49 89 101 0
-49 -89 101 0
41 13 -102 0
-41 -13 -102 0
41 -13 102 0
-41 13 102 0
9 67 -103 0
-9 -67 -103 0
9 -67 103 0
-9 67 103 0
-102 103 -104 0
102 -103 -104 0
-102 -103 104 0
102 103 104 0
101 -104 -105 0
-101 104 -105 0
101 104 105 0
-101 -104 105 0
106 -100 0
106 -105 0
100 105 -106 0
107 94 0
107 -106 0
-94 106 -107 0
-108 -84 0
-108 107 0
84 -107 108 0
90 74 -109 0
-90 -74 -109 0
90 -74 109 0
-90 74 109 0
109 -41 -110 0
-109 41 -110 0
109 41 110 0
-109 -41 110 0
111 23 0
111 28 0
-23 -28 -111 0
-112 -110 0
-112 111 0
110 -111 112 0
-113 108 0
-113 -112 0
-108 112 113 0
-59 -19 -95 -100 0
-70 50 -21 0
31 -25 0
-62 92 -9 -43 8 0
-50 -25 -40 -93 54 70 0
-43 -6 -106 -40 -89 0
35 81 -20 45 0
-50 -42 -4 -45 24 -26 0
-3 -5 59 44 37 95 0
32 84 -30 0
47 12 -66 83 103 0
-26 -38 55 -13 6 31 0
-62 23 -93 105 -13 0
64 96 -11 -54 70 0
113 -73 0
-66 -81 -51 0
73 89 111 86 0
-60 57 16 -54 47 -62 0
66 95 57 -85 0
96 -53 63 77 44 0
111 67 0
35 -88 -44 0
-11 -49 -105 -95 -14 -58 0
97 29 -49 0
70 38 102 -88 0
28 40 61 -71 0
81 64 -105 0
67 -41 -23 0
25 54 0
34 24 0
-50 0
32 4 35 -24 91 0
79 89 0
12 -65 22 -43 0
51 -7 72 -34 0
-82 -109 93 -1 53 -49 0
22 47 -74 30 -82 44 0
23 -80 32 50 -14 41 0
-56 -65 -81 -107 89 -72 0
96 -99 98 -3 81 0
93 67 -66 0
101 16 10 47 -6 0
-54 -34 0
-33 97 -80 16 -90 0
-9 -71 -44 59 -85 108 0
-57 66 -32 105 0
-45 17 51 0
-102 108 0
-54 101 0
-79 108 -24 42 -92 11 0
113 0
